 $contrl scftyp=uhf runtyp=energy nzvar=0 ispher=1
     coord=unique icharg=-1 mult=2 PP=READ MAXIT=100 $end
 $system timlim=300 mwords=15000 memddi=2000 $end
 $GUESS  GUESS=MOREAD norb=188 $END 
 $data
W4- 4.0 ang UHF with avtz
Dnh 2

X 0.0    0.0           0.0            0.0
S   1
  1   0.02362232    1.0
S   1
  1   0.00738198    1.0
S   1
  1   0.00230687    1.0
S   1
  1   0.00072090    1.0
S   1
  1   0.00022528    1.0
S   1
  1   0.00007040    1.0
S   1
  1   0.00002200    1.0
P   1
  1   0.02362232    1.0
P   1
  1   0.00738198    1.0
P   1
  1   0.00230687    1.0
P   1
  1   0.00072090    1.0
P   1
  1   0.00022528    1.0
P   1
  1   0.00007040    1.0
P   1
  1   0.00002200    1.0

O 8.0       0.000000    1.730527    2.893437
S 9
1  54.775216    -0.0012444
2  25.616801     0.0107330
3  11.980245     0.0018889
4   6.992317    -0.1742537
5   2.620277     0.0017622
6   1.225429     0.3161846
7   0.577797     0.4512023
8   0.268022     0.3121534
9   0.125346     0.0511167
S 1
1   0.258551     1.0000000
S   1
1   0.0789600    1.0000000
P 9
1  22.217266     0.0104866
2  10.74755      0.0366435
3   5.315785     0.0803674
4   2.660761     0.1627010
5   1.331816     0.2377791
6   0.678626     0.2811422
7   0.333673     0.2643189
8   0.167017     0.1466014
9   0.083598     0.0458145
P 1
1   0.267865     1.0000000
P   1
1   0.0685600    1.0000000
D 1
1   1.232753     1.0000000
D   1
1   0.3320000    1.0000000

H 1.0       0.000000    1.387569    2.000001
S  8
  1      23.843185  0.00411490
  2      10.212443  0.01046440
  3       4.374164  0.02801110
  4       1.873529  0.07588620
  5       0.802465  0.18210620
  6       0.343709  0.34852140
  7       0.147217  0.37823130
  8       0.063055  0.11642410
S  1
  1       0.040680  1.00000000
S  1
  1       0.139013  1.00000000
P  1
  1       0.166430  1.00000000
P  1
  1       0.740212  1.000000

H 1.0       0.000000    2.681413    2.785434
S  8
  1      23.843185  0.00411490
  2      10.212443  0.01046440
  3       4.374164  0.02801110
  4       1.873529  0.07588620
  5       0.802465  0.18210620
  6       0.343709  0.34852140
  7       0.147217  0.37823130
  8       0.063055  0.11642410
S  1
  1       0.040680  1.00000000
S  1
  1       0.139013  1.00000000
P  1
  1       0.166430  1.00000000
P  1
  1       0.740212  1.000000

 $end
 $ecp
NONE
O-ccECP GEN 2 1
3
  6.000000 1  12.30997
  73.85984 3  14.76962
 -47.87600 2  13.71419
1
  85.86406 2  13.65512
O-ccECP
O-ccECP
O-ccECP
H-ccECP GEN 0 1
3
1.00000000000000    1 21.24359508259891 
21.24359508259891   3 21.24359508259891 
-10.85192405303825  2 21.77696655044365 
1
0.00000000000000    2 1.000000000000000 
H-ccECP
H-ccECP
H-ccECP
H-ccECP
H-ccECP
H-ccECP
H-ccECP
 $end








 $VEC   
 1  1-1.34006922E-02 1.84946041E-03-7.41762125E-04 3.68571857E-04-1.86092217E-04
 1  2 8.53188970E-05-2.63648075E-05 0.00000000E+00 0.00000000E+00 0.00000000E+00
 1  3 0.00000000E+00 0.00000000E+00 0.00000000E+00 0.00000000E+00 0.00000000E+00
 1  4 0.00000000E+00 0.00000000E+00 0.00000000E+00 0.00000000E+00 0.00000000E+00
 1  5 0.00000000E+00 0.00000000E+00 0.00000000E+00 0.00000000E+00 0.00000000E+00
 1  6 0.00000000E+00 0.00000000E+00 0.00000000E+00 4.44225146E-01-1.02315254E-01
 1  7-4.11453117E-02 0.00000000E+00-3.16735977E-02-5.30855515E-02 0.00000000E+00
 1  8 2.36967797E-02 3.93394636E-02 0.00000000E+00 3.36533267E-03 8.29981133E-03
 1  9-3.75435527E-03 2.14261224E-03 1.61174303E-03 0.00000000E+00 0.00000000E+00
 1 10-6.94333602E-04 9.90511224E-03-6.55365916E-03-3.35145308E-03 0.00000000E+00
 1 11 0.00000000E+00 3.30351750E-03 4.44225146E-01-1.02315254E-01-4.11453117E-02
 1 12 0.00000000E+00 3.16735977E-02 5.30855515E-02 0.00000000E+00-2.36967797E-02
 1 13-3.93394636E-02 0.00000000E+00-3.36533267E-03-8.29981133E-03-3.75435527E-03
 1 14 2.14261224E-03 1.61174303E-03 0.00000000E+00 0.00000000E+00-6.94333602E-04
 1 15 9.90511224E-03-6.55365916E-03-3.35145308E-03 0.00000000E+00 0.00000000E+00
 1 16 3.30351750E-03 4.44225146E-01-1.02315254E-01-4.11453117E-02 0.00000000E+00
 1 17-3.16735977E-02 5.30855515E-02 0.00000000E+00 2.36967797E-02-3.93394636E-02
 1 18 0.00000000E+00 3.36533267E-03-8.29981133E-03-3.75435527E-03 2.14261224E-03
 1 19 1.61174303E-03 0.00000000E+00 0.00000000E+00 6.94333602E-04 9.90511224E-03
 1 20-6.55365916E-03-3.35145308E-03 0.00000000E+00 0.00000000E+00-3.30351750E-03
 1 21 4.44225146E-01-1.02315254E-01-4.11453117E-02 0.00000000E+00 3.16735977E-02
 1 22-5.30855515E-02 0.00000000E+00-2.36967797E-02 3.93394636E-02 0.00000000E+00
 1 23-3.36533267E-03 8.29981133E-03-3.75435527E-03 2.14261224E-03 1.61174303E-03
 1 24 0.00000000E+00 0.00000000E+00 6.94333602E-04 9.90511224E-03-6.55365916E-03
 1 25-3.35145308E-03 0.00000000E+00 0.00000000E+00-3.30351750E-03 1.79728195E-01
 1 26 4.61125084E-03-5.50567569E-02 0.00000000E+00-4.75861098E-03 1.37573116E-02
 1 27 0.00000000E+00-8.65606762E-03 1.67693914E-02 1.79728195E-01 4.61125084E-03
 1 28-5.50567569E-02 0.00000000E+00 4.75861098E-03-1.37573116E-02 0.00000000E+00
 1 29 8.65606762E-03-1.67693914E-02 1.79728195E-01 4.61125084E-03-5.50567569E-02
 1 30 0.00000000E+00-4.75861098E-03-1.37573116E-02 0.00000000E+00-8.65606762E-03
 1 31-1.67693914E-02 1.79728195E-01 4.61125084E-03-5.50567569E-02 0.00000000E+00
 1 32 4.75861098E-03 1.37573116E-02 0.00000000E+00 8.65606762E-03 1.67693914E-02
 1 33 1.78077020E-01-6.32909064E-03-5.39895047E-02 0.00000000E+00 1.37311921E-02
 1 34 9.19640557E-04 0.00000000E+00 1.90809300E-02 6.89788101E-05 1.78077020E-01
 1 35-6.32909064E-03-5.39895047E-02 0.00000000E+00-1.37311921E-02-9.19640557E-04
 1 36 0.00000000E+00-1.90809300E-02-6.89788101E-05 1.78077020E-01-6.32909064E-03
 1 37-5.39895047E-02 0.00000000E+00 1.37311921E-02-9.19640557E-04 0.00000000E+00
 1 38 1.90809300E-02-6.89788101E-05 1.78077020E-01-6.32909064E-03-5.39895047E-02
 1 39 0.00000000E+00-1.37311921E-02 9.19640557E-04 0.00000000E+00-1.90809300E-02
 1 40 6.89788101E-05
 2  1 0.00000000E+00 0.00000000E+00 0.00000000E+00 0.00000000E+00 0.00000000E+00
 2  2 0.00000000E+00 0.00000000E+00 0.00000000E+00 0.00000000E+00-1.16868529E-02
 2  3 0.00000000E+00 0.00000000E+00 4.34157204E-04 0.00000000E+00 0.00000000E+00
 2  4-1.39606384E-04 0.00000000E+00 0.00000000E+00 6.49259853E-05 0.00000000E+00
 2  5 0.00000000E+00-3.10324354E-05 0.00000000E+00 0.00000000E+00 1.39233061E-05
 2  6 0.00000000E+00 0.00000000E+00-4.59019696E-06 4.44224759E-01-1.02049053E-01
 2  7-4.32698667E-02 0.00000000E+00-3.17180933E-02-5.30854295E-02 0.00000000E+00
 2  8 2.40376880E-02 3.94543087E-02 0.00000000E+00 4.11839195E-03 8.85924014E-03
 2  9-3.75478038E-03 2.13952887E-03 1.61525151E-03 0.00000000E+00 0.00000000E+00
 2 10-6.80886791E-04 9.98421137E-03-6.47081371E-03-3.51339766E-03 0.00000000E+00
 2 11 0.00000000E+00 3.27798402E-03-4.44224759E-01 1.02049053E-01 4.32698667E-02
 2 12 0.00000000E+00-3.17180933E-02-5.30854295E-02 0.00000000E+00 2.40376880E-02
 2 13 3.94543087E-02 0.00000000E+00 4.11839195E-03 8.85924014E-03 3.75478038E-03
 2 14-2.13952887E-03-1.61525151E-03 0.00000000E+00 0.00000000E+00 6.80886791E-04
 2 15-9.98421137E-03 6.47081371E-03 3.51339766E-03 0.00000000E+00 0.00000000E+00
 2 16-3.27798402E-03-4.44224759E-01 1.02049053E-01 4.32698667E-02 0.00000000E+00
 2 17 3.17180933E-02-5.30854295E-02 0.00000000E+00-2.40376880E-02 3.94543087E-02
 2 18 0.00000000E+00-4.11839195E-03 8.85924014E-03 3.75478038E-03-2.13952887E-03
 2 19-1.61525151E-03 0.00000000E+00 0.00000000E+00-6.80886791E-04-9.98421137E-03
 2 20 6.47081371E-03 3.51339766E-03 0.00000000E+00 0.00000000E+00 3.27798402E-03
 2 21 4.44224759E-01-1.02049053E-01-4.32698667E-02 0.00000000E+00 3.17180933E-02
 2 22-5.30854295E-02 0.00000000E+00-2.40376880E-02 3.94543087E-02 0.00000000E+00
 2 23-4.11839195E-03 8.85924014E-03-3.75478038E-03 2.13952887E-03 1.61525151E-03
 2 24 0.00000000E+00 0.00000000E+00 6.80886791E-04 9.98421137E-03-6.47081371E-03
 2 25-3.51339766E-03 0.00000000E+00 0.00000000E+00-3.27798402E-03 1.79741150E-01
 2 26 7.37316230E-03-5.55793291E-02 0.00000000E+00-4.59258768E-03 1.25569595E-02
 2 27 0.00000000E+00-8.71715565E-03 1.68719951E-02-1.79741150E-01-7.37316230E-03
 2 28 5.55793291E-02 0.00000000E+00-4.59258768E-03 1.25569595E-02 0.00000000E+00
 2 29-8.71715565E-03 1.68719951E-02-1.79741150E-01-7.37316230E-03 5.55793291E-02
 2 30 0.00000000E+00 4.59258768E-03 1.25569595E-02 0.00000000E+00 8.71715565E-03
 2 31 1.68719951E-02 1.79741150E-01 7.37316230E-03-5.55793291E-02 0.00000000E+00
 2 32 4.59258768E-03 1.25569595E-02 0.00000000E+00 8.71715565E-03 1.68719951E-02
 2 33 1.78118939E-01-4.70097148E-03-5.26683138E-02 0.00000000E+00 1.44200449E-02
 2 34 8.12903033E-04 0.00000000E+00 1.90652862E-02 5.78912478E-05-1.78118939E-01
 2 35 4.70097148E-03 5.26683138E-02 0.00000000E+00 1.44200449E-02 8.12903033E-04
 2 36 0.00000000E+00 1.90652862E-02 5.78912478E-05-1.78118939E-01 4.70097148E-03
 2 37 5.26683138E-02 0.00000000E+00-1.44200449E-02 8.12903033E-04 0.00000000E+00
 2 38-1.90652862E-02 5.78912478E-05 1.78118939E-01-4.70097148E-03-5.26683138E-02
 2 39 0.00000000E+00-1.44200449E-02 8.12903033E-04 0.00000000E+00-1.90652862E-02
 2 40 5.78912478E-05
 3  1 0.00000000E+00 0.00000000E+00 0.00000000E+00 0.00000000E+00 0.00000000E+00
 3  2 0.00000000E+00 0.00000000E+00 0.00000000E+00 0.00000000E+00 0.00000000E+00
 3  3 0.00000000E+00 0.00000000E+00 0.00000000E+00 0.00000000E+00 0.00000000E+00
 3  4 0.00000000E+00 0.00000000E+00 0.00000000E+00 0.00000000E+00 0.00000000E+00
 3  5 0.00000000E+00 0.00000000E+00 0.00000000E+00 0.00000000E+00 0.00000000E+00
 3  6 0.00000000E+00 0.00000000E+00 0.00000000E+00 4.44646643E-01-1.01037123E-01
 3  7-3.96982887E-02 0.00000000E+00-3.25125134E-02-5.32676607E-02 0.00000000E+00
 3  8 2.33379742E-02 4.05117761E-02 0.00000000E+00-1.19275253E-03 9.42152952E-03
 3  9-3.83859212E-03 2.20857549E-03 1.63001662E-03 0.00000000E+00 0.00000000E+00
 3 10-6.35595418E-04 1.02898908E-02-6.54384437E-03-3.74604641E-03 0.00000000E+00
 3 11 0.00000000E+00 3.16243464E-03 4.44646643E-01-1.01037123E-01-3.96982887E-02
 3 12 0.00000000E+00 3.25125134E-02 5.32676607E-02 0.00000000E+00-2.33379742E-02
 3 13-4.05117761E-02 0.00000000E+00 1.19275253E-03-9.42152952E-03-3.83859212E-03
 3 14 2.20857549E-03 1.63001662E-03 0.00000000E+00 0.00000000E+00-6.35595418E-04
 3 15 1.02898908E-02-6.54384437E-03-3.74604641E-03 0.00000000E+00 0.00000000E+00
 3 16 3.16243464E-03-4.44646643E-01 1.01037123E-01 3.96982887E-02 0.00000000E+00
 3 17 3.25125134E-02-5.32676607E-02 0.00000000E+00-2.33379742E-02 4.05117761E-02
 3 18 0.00000000E+00 1.19275253E-03 9.42152952E-03 3.83859212E-03-2.20857549E-03
 3 19-1.63001662E-03 0.00000000E+00 0.00000000E+00-6.35595418E-04-1.02898908E-02
 3 20 6.54384437E-03 3.74604641E-03 0.00000000E+00 0.00000000E+00 3.16243464E-03
 3 21-4.44646643E-01 1.01037123E-01 3.96982887E-02 0.00000000E+00-3.25125134E-02
 3 22 5.32676607E-02 0.00000000E+00 2.33379742E-02-4.05117761E-02 0.00000000E+00
 3 23-1.19275253E-03-9.42152952E-03 3.83859212E-03-2.20857549E-03-1.63001662E-03
 3 24 0.00000000E+00 0.00000000E+00-6.35595418E-04-1.02898908E-02 6.54384437E-03
 3 25 3.74604641E-03 0.00000000E+00 0.00000000E+00 3.16243464E-03 1.79963151E-01
 3 26 5.97346851E-03-5.01172856E-02 0.00000000E+00-7.42764743E-03 1.40881264E-02
 3 27 0.00000000E+00-8.58540119E-03 1.68393751E-02 1.79963151E-01 5.97346851E-03
 3 28-5.01172856E-02 0.00000000E+00 7.42764743E-03-1.40881264E-02 0.00000000E+00
 3 29 8.58540119E-03-1.68393751E-02-1.79963151E-01-5.97346851E-03 5.01172856E-02
 3 30 0.00000000E+00 7.42764743E-03 1.40881264E-02 0.00000000E+00 8.58540119E-03
 3 31 1.68393751E-02-1.79963151E-01-5.97346851E-03 5.01172856E-02 0.00000000E+00
 3 32-7.42764743E-03-1.40881264E-02 0.00000000E+00-8.58540119E-03-1.68393751E-02
 3 33 1.79423016E-01-9.97601006E-03-6.19902481E-02 0.00000000E+00 1.20230915E-02
 3 34 1.40253554E-03 0.00000000E+00 1.89320736E-02-5.67080254E-05 1.79423016E-01
 3 35-9.97601006E-03-6.19902481E-02 0.00000000E+00-1.20230915E-02-1.40253554E-03
 3 36 0.00000000E+00-1.89320736E-02 5.67080254E-05-1.79423016E-01 9.97601006E-03
 3 37 6.19902481E-02 0.00000000E+00-1.20230915E-02 1.40253554E-03 0.00000000E+00
 3 38-1.89320736E-02-5.67080254E-05-1.79423016E-01 9.97601006E-03 6.19902481E-02
 3 39 0.00000000E+00 1.20230915E-02-1.40253554E-03 0.00000000E+00 1.89320736E-02
 3 40 5.67080254E-05
 4  1 0.00000000E+00 0.00000000E+00 0.00000000E+00 0.00000000E+00 0.00000000E+00
 4  2 0.00000000E+00 0.00000000E+00 0.00000000E+00 9.78554942E-03 0.00000000E+00
 4  3 0.00000000E+00-2.00928012E-03 0.00000000E+00 0.00000000E+00 8.28740698E-04
 4  4 0.00000000E+00 0.00000000E+00-3.93001267E-04 0.00000000E+00 0.00000000E+00
 4  5 1.88265329E-04 0.00000000E+00 0.00000000E+00-8.45008993E-05 0.00000000E+00
 4  6 0.00000000E+00 2.78580792E-05 0.00000000E+00 4.44517068E-01-1.00264066E-01
 4  7-4.01658012E-02 0.00000000E+00-3.25692874E-02-5.31525280E-02 0.00000000E+00
 4  8 2.45070317E-02 3.91983476E-02 0.00000000E+00 2.10082069E-03 8.21758036E-03
 4  9-3.84514958E-03 2.21619578E-03 1.62895380E-03 0.00000000E+00 0.00000000E+00
 4 10-6.58520486E-04 1.02788942E-02-6.88159562E-03-3.39729858E-03 0.00000000E+00
 4 11 0.00000000E+00 3.11295219E-03-4.44517068E-01 1.00264066E-01 4.01658012E-02
 4 12 0.00000000E+00-3.25692874E-02-5.31525280E-02 0.00000000E+00 2.45070317E-02
 4 13 3.91983476E-02 0.00000000E+00 2.10082069E-03 8.21758036E-03 3.84514958E-03
 4 14-2.21619578E-03-1.62895380E-03 0.00000000E+00 0.00000000E+00 6.58520486E-04
 4 15-1.02788942E-02 6.88159562E-03 3.39729858E-03 0.00000000E+00 0.00000000E+00
 4 16-3.11295219E-03 4.44517068E-01-1.00264066E-01-4.01658012E-02 0.00000000E+00
 4 17-3.25692874E-02 5.31525280E-02 0.00000000E+00 2.45070317E-02-3.91983476E-02
 4 18 0.00000000E+00 2.10082069E-03-8.21758036E-03-3.84514958E-03 2.21619578E-03
 4 19 1.62895380E-03 0.00000000E+00 0.00000000E+00 6.58520486E-04 1.02788942E-02
 4 20-6.88159562E-03-3.39729858E-03 0.00000000E+00 0.00000000E+00-3.11295219E-03
 4 21-4.44517068E-01 1.00264066E-01 4.01658012E-02 0.00000000E+00-3.25692874E-02
 4 22 5.31525280E-02 0.00000000E+00 2.45070317E-02-3.91983476E-02 0.00000000E+00
 4 23 2.10082069E-03-8.21758036E-03 3.84514958E-03-2.21619578E-03-1.62895380E-03
 4 24 0.00000000E+00 0.00000000E+00-6.58520486E-04-1.02788942E-02 6.88159562E-03
 4 25 3.39729858E-03 0.00000000E+00 0.00000000E+00 3.11295219E-03 1.79440225E-01
 4 26 8.13334743E-03-5.56313888E-02 0.00000000E+00-5.85226171E-03 1.26274971E-02
 4 27 0.00000000E+00-8.60339971E-03 1.67309386E-02-1.79440225E-01-8.13334743E-03
 4 28 5.56313888E-02 0.00000000E+00-5.85226171E-03 1.26274971E-02 0.00000000E+00
 4 29-8.60339971E-03 1.67309386E-02 1.79440225E-01 8.13334743E-03-5.56313888E-02
 4 30 0.00000000E+00-5.85226171E-03-1.26274971E-02 0.00000000E+00-8.60339971E-03
 4 31-1.67309386E-02-1.79440225E-01-8.13334743E-03 5.56313888E-02 0.00000000E+00
 4 32-5.85226171E-03-1.26274971E-02 0.00000000E+00-8.60339971E-03-1.67309386E-02
 4 33 1.79605508E-01-6.99433237E-03-5.69486900E-02 0.00000000E+00 1.34370027E-02
 4 34 1.23985204E-03 0.00000000E+00 1.90287227E-02 7.88129299E-06-1.79605508E-01
 4 35 6.99433237E-03 5.69486900E-02 0.00000000E+00 1.34370027E-02 1.23985204E-03
 4 36 0.00000000E+00 1.90287227E-02 7.88129299E-06 1.79605508E-01-6.99433237E-03
 4 37-5.69486900E-02 0.00000000E+00 1.34370027E-02-1.23985204E-03 0.00000000E+00
 4 38 1.90287227E-02-7.88129299E-06-1.79605508E-01 6.99433237E-03 5.69486900E-02
 4 39 0.00000000E+00 1.34370027E-02-1.23985204E-03 0.00000000E+00 1.90287227E-02
 4 40-7.88129299E-06
 5  1-1.93232784E-02 5.63434530E-03-2.54734779E-03 1.29450146E-03-6.57109763E-04
 5  2 3.01531090E-04-9.31623524E-05 0.00000000E+00 0.00000000E+00 0.00000000E+00
 5  3 0.00000000E+00 0.00000000E+00 0.00000000E+00 0.00000000E+00 0.00000000E+00
 5  4 0.00000000E+00 0.00000000E+00 0.00000000E+00 0.00000000E+00 0.00000000E+00
 5  5 0.00000000E+00 0.00000000E+00 0.00000000E+00 0.00000000E+00 0.00000000E+00
 5  6 0.00000000E+00 0.00000000E+00 0.00000000E+00-2.83799327E-03-2.80422034E-04
 5  7-6.47355603E-03 0.00000000E+00 3.18866619E-01-1.89481510E-01 0.00000000E+00
 5  8-6.44939535E-02 3.88755740E-02 0.00000000E+00-2.47784734E-02 1.51861107E-02
 5  9-3.04364070E-05-1.08130714E-02 1.08435078E-02 0.00000000E+00 0.00000000E+00
 5 10-6.68238865E-03 1.17456635E-04 8.10433107E-03-8.22178771E-03 0.00000000E+00
 5 11 0.00000000E+00 5.34716624E-03-2.83799327E-03-2.80422034E-04-6.47355603E-03
 5 12 0.00000000E+00-3.18866619E-01 1.89481510E-01 0.00000000E+00 6.44939535E-02
 5 13-3.88755740E-02 0.00000000E+00 2.47784734E-02-1.51861107E-02-3.04364070E-05
 5 14-1.08130714E-02 1.08435078E-02 0.00000000E+00 0.00000000E+00-6.68238865E-03
 5 15 1.17456635E-04 8.10433107E-03-8.22178771E-03 0.00000000E+00 0.00000000E+00
 5 16 5.34716624E-03-2.83799327E-03-2.80422034E-04-6.47355603E-03 0.00000000E+00
 5 17 3.18866619E-01 1.89481510E-01 0.00000000E+00-6.44939535E-02-3.88755740E-02
 5 18 0.00000000E+00-2.47784734E-02-1.51861107E-02-3.04364070E-05-1.08130714E-02
 5 19 1.08435078E-02 0.00000000E+00 0.00000000E+00 6.68238865E-03 1.17456635E-04
 5 20 8.10433107E-03-8.22178771E-03 0.00000000E+00 0.00000000E+00-5.34716624E-03
 5 21-2.83799327E-03-2.80422034E-04-6.47355603E-03 0.00000000E+00-3.18866619E-01
 5 22-1.89481510E-01 0.00000000E+00 6.44939535E-02 3.88755740E-02 0.00000000E+00
 5 23 2.47784734E-02 1.51861107E-02-3.04364070E-05-1.08130714E-02 1.08435078E-02
 5 24 0.00000000E+00 0.00000000E+00 6.68238865E-03 1.17456635E-04 8.10433107E-03
 5 25-8.22178771E-03 0.00000000E+00 0.00000000E+00-5.34716624E-03 2.94600085E-01
 5 26 9.71379045E-03-7.07127374E-02 0.00000000E+00-3.55538869E-03 1.43108684E-02
 5 27 0.00000000E+00-9.26881751E-04 1.79919225E-02 2.94600085E-01 9.71379045E-03
 5 28-7.07127374E-02 0.00000000E+00 3.55538869E-03-1.43108684E-02 0.00000000E+00
 5 29 9.26881751E-04-1.79919225E-02 2.94600085E-01 9.71379045E-03-7.07127374E-02
 5 30 0.00000000E+00-3.55538869E-03-1.43108684E-02 0.00000000E+00-9.26881751E-04
 5 31-1.79919225E-02 2.94600085E-01 9.71379045E-03-7.07127374E-02 0.00000000E+00
 5 32 3.55538869E-03 1.43108684E-02 0.00000000E+00 9.26881751E-04 1.79919225E-02
 5 33-2.95457170E-01-2.31550767E-03 7.58235619E-02 0.00000000E+00-1.38868135E-02
 5 34-1.58631811E-03 0.00000000E+00-1.71947071E-02-6.86750100E-03-2.95457170E-01
 5 35-2.31550767E-03 7.58235619E-02 0.00000000E+00 1.38868135E-02 1.58631811E-03
 5 36 0.00000000E+00 1.71947071E-02 6.86750100E-03-2.95457170E-01-2.31550767E-03
 5 37 7.58235619E-02 0.00000000E+00-1.38868135E-02 1.58631811E-03 0.00000000E+00
 5 38-1.71947071E-02 6.86750100E-03-2.95457170E-01-2.31550767E-03 7.58235619E-02
 5 39 0.00000000E+00 1.38868135E-02-1.58631811E-03 0.00000000E+00 1.71947071E-02
 5 40-6.86750100E-03
 6  1 0.00000000E+00 0.00000000E+00 0.00000000E+00 0.00000000E+00 0.00000000E+00
 6  2 0.00000000E+00 0.00000000E+00 0.00000000E+00 0.00000000E+00-1.24691204E-02
 6  3 0.00000000E+00 0.00000000E+00 9.54609569E-04 0.00000000E+00 0.00000000E+00
 6  4-3.02143988E-04 0.00000000E+00 0.00000000E+00 1.33358865E-04 0.00000000E+00
 6  5 0.00000000E+00-6.26024183E-05 0.00000000E+00 0.00000000E+00 2.79230886E-05
 6  6 0.00000000E+00 0.00000000E+00-9.18600995E-06-2.57693252E-03 3.81731475E-04
 6  7-1.10025566E-02 0.00000000E+00 3.19216387E-01-1.89178626E-01 0.00000000E+00
 6  8-6.39900089E-02 3.91854031E-02 0.00000000E+00-2.49273234E-02 1.66891518E-02
 6  9-1.74875818E-05-1.08350949E-02 1.08525825E-02 0.00000000E+00 0.00000000E+00
 6 10-6.68571236E-03 2.56703117E-04 8.25411650E-03-8.51081962E-03 0.00000000E+00
 6 11 0.00000000E+00 5.38336082E-03 2.57693252E-03-3.81731475E-04 1.10025566E-02
 6 12 0.00000000E+00 3.19216387E-01-1.89178626E-01 0.00000000E+00-6.39900089E-02
 6 13 3.91854031E-02 0.00000000E+00-2.49273234E-02 1.66891518E-02 1.74875818E-05
 6 14 1.08350949E-02-1.08525825E-02 0.00000000E+00 0.00000000E+00 6.68571236E-03
 6 15-2.56703117E-04-8.25411650E-03 8.51081962E-03 0.00000000E+00 0.00000000E+00
 6 16-5.38336082E-03 2.57693252E-03-3.81731475E-04 1.10025566E-02 0.00000000E+00
 6 17-3.19216387E-01-1.89178626E-01 0.00000000E+00 6.39900089E-02 3.91854031E-02
 6 18 0.00000000E+00 2.49273234E-02 1.66891518E-02 1.74875818E-05 1.08350949E-02
 6 19-1.08525825E-02 0.00000000E+00 0.00000000E+00-6.68571236E-03-2.56703117E-04
 6 20-8.25411650E-03 8.51081962E-03 0.00000000E+00 0.00000000E+00 5.38336082E-03
 6 21-2.57693252E-03 3.81731475E-04-1.10025566E-02 0.00000000E+00-3.19216387E-01
 6 22-1.89178626E-01 0.00000000E+00 6.39900089E-02 3.91854031E-02 0.00000000E+00
 6 23 2.49273234E-02 1.66891518E-02-1.74875818E-05-1.08350949E-02 1.08525825E-02
 6 24 0.00000000E+00 0.00000000E+00 6.68571236E-03 2.56703117E-04 8.25411650E-03
 6 25-8.51081962E-03 0.00000000E+00 0.00000000E+00-5.38336082E-03 2.94520509E-01
 6 26 1.62453855E-02-7.03114252E-02 0.00000000E+00-3.36366048E-03 1.27626212E-02
 6 27 0.00000000E+00-1.01606322E-03 1.81764183E-02-2.94520509E-01-1.62453855E-02
 6 28 7.03114252E-02 0.00000000E+00-3.36366048E-03 1.27626212E-02 0.00000000E+00
 6 29-1.01606322E-03 1.81764183E-02-2.94520509E-01-1.62453855E-02 7.03114252E-02
 6 30 0.00000000E+00 3.36366048E-03 1.27626212E-02 0.00000000E+00 1.01606322E-03
 6 31 1.81764183E-02 2.94520509E-01 1.62453855E-02-7.03114252E-02 0.00000000E+00
 6 32 3.36366048E-03 1.27626212E-02 0.00000000E+00 1.01606322E-03 1.81764183E-02
 6 33-2.95748404E-01-2.73616909E-03 7.76566379E-02 0.00000000E+00-1.32953362E-02
 6 34-1.69294471E-03 0.00000000E+00-1.71747005E-02-6.88371268E-03 2.95748404E-01
 6 35 2.73616909E-03-7.76566379E-02 0.00000000E+00-1.32953362E-02-1.69294471E-03
 6 36 0.00000000E+00-1.71747005E-02-6.88371268E-03 2.95748404E-01 2.73616909E-03
 6 37-7.76566379E-02 0.00000000E+00 1.32953362E-02-1.69294471E-03 0.00000000E+00
 6 38 1.71747005E-02-6.88371268E-03-2.95748404E-01-2.73616909E-03 7.76566379E-02
 6 39 0.00000000E+00 1.32953362E-02-1.69294471E-03 0.00000000E+00 1.71747005E-02
 6 40-6.88371268E-03
 7  1 0.00000000E+00 0.00000000E+00 0.00000000E+00 0.00000000E+00 0.00000000E+00
 7  2 0.00000000E+00 0.00000000E+00 0.00000000E+00 2.51241978E-03 0.00000000E+00
 7  3 0.00000000E+00-1.07916308E-03 0.00000000E+00 0.00000000E+00 5.18436840E-04
 7  4 0.00000000E+00 0.00000000E+00-2.49846695E-04 0.00000000E+00 0.00000000E+00
 7  5 1.19860320E-04 0.00000000E+00 0.00000000E+00-5.37650010E-05 0.00000000E+00
 7  6 0.00000000E+00 1.77135111E-05 0.00000000E+00-2.76111478E-04-1.62681097E-03
 7  7-4.18566923E-03 0.00000000E+00 3.18191436E-01-1.98532991E-01 0.00000000E+00
 7  8-6.38205674E-02 3.89537517E-02 0.00000000E+00-1.68311901E-02 1.32485645E-02
 7  9-5.05759319E-05-1.11727063E-02 1.12232823E-02 0.00000000E+00 0.00000000E+00
 7 10-6.64057583E-03-7.68277053E-05 8.52722627E-03-8.45039856E-03 0.00000000E+00
 7 11 0.00000000E+00 5.06982983E-03 2.76111478E-04 1.62681097E-03 4.18566923E-03
 7 12 0.00000000E+00 3.18191436E-01-1.98532991E-01 0.00000000E+00-6.38205674E-02
 7 13 3.89537517E-02 0.00000000E+00-1.68311901E-02 1.32485645E-02 5.05759319E-05
 7 14 1.11727063E-02-1.12232823E-02 0.00000000E+00 0.00000000E+00 6.64057583E-03
 7 15 7.68277053E-05-8.52722627E-03 8.45039856E-03 0.00000000E+00 0.00000000E+00
 7 16-5.06982983E-03-2.76111478E-04-1.62681097E-03-4.18566923E-03 0.00000000E+00
 7 17 3.18191436E-01 1.98532991E-01 0.00000000E+00-6.38205674E-02-3.89537517E-02
 7 18 0.00000000E+00-1.68311901E-02-1.32485645E-02-5.05759319E-05-1.11727063E-02
 7 19 1.12232823E-02 0.00000000E+00 0.00000000E+00 6.64057583E-03-7.68277053E-05
 7 20 8.52722627E-03-8.45039856E-03 0.00000000E+00 0.00000000E+00-5.06982983E-03
 7 21 2.76111478E-04 1.62681097E-03 4.18566923E-03 0.00000000E+00 3.18191436E-01
 7 22 1.98532991E-01 0.00000000E+00-6.38205674E-02-3.89537517E-02 0.00000000E+00
 7 23-1.68311901E-02-1.32485645E-02 5.05759319E-05 1.11727063E-02-1.12232823E-02
 7 24 0.00000000E+00 0.00000000E+00-6.64057583E-03 7.68277053E-05-8.52722627E-03
 7 25 8.45039856E-03 0.00000000E+00 0.00000000E+00 5.06982983E-03 3.01036643E-01
 7 26 1.02290606E-03-7.58888261E-02 0.00000000E+00-6.10206017E-03 1.34130886E-02
 7 27 0.00000000E+00-1.63563899E-03 1.82819403E-02-3.01036643E-01-1.02290606E-03
 7 28 7.58888261E-02 0.00000000E+00-6.10206017E-03 1.34130886E-02 0.00000000E+00
 7 29-1.63563899E-03 1.82819403E-02 3.01036643E-01 1.02290606E-03-7.58888261E-02
 7 30 0.00000000E+00-6.10206017E-03-1.34130886E-02 0.00000000E+00-1.63563899E-03
 7 31-1.82819403E-02-3.01036643E-01-1.02290606E-03 7.58888261E-02 0.00000000E+00
 7 32-6.10206017E-03-1.34130886E-02 0.00000000E+00-1.63563899E-03-1.82819403E-02
 7 33-2.95162635E-01 3.99501000E-03 7.76853815E-02 0.00000000E+00-1.47059698E-02
 7 34-5.81913227E-04 0.00000000E+00-1.67369265E-02-7.27628286E-03 2.95162635E-01
 7 35-3.99501000E-03-7.76853815E-02 0.00000000E+00-1.47059698E-02-5.81913227E-04
 7 36 0.00000000E+00-1.67369265E-02-7.27628286E-03-2.95162635E-01 3.99501000E-03
 7 37 7.76853815E-02 0.00000000E+00-1.47059698E-02 5.81913227E-04 0.00000000E+00
 7 38-1.67369265E-02 7.27628286E-03 2.95162635E-01-3.99501000E-03-7.76853815E-02
 7 39 0.00000000E+00-1.47059698E-02 5.81913227E-04 0.00000000E+00-1.67369265E-02
 7 40 7.27628286E-03
 8  1 0.00000000E+00 0.00000000E+00 0.00000000E+00 0.00000000E+00 0.00000000E+00
 8  2 0.00000000E+00 0.00000000E+00 0.00000000E+00 0.00000000E+00 0.00000000E+00
 8  3 0.00000000E+00 0.00000000E+00 0.00000000E+00 0.00000000E+00 0.00000000E+00
 8  4 0.00000000E+00 0.00000000E+00 0.00000000E+00 0.00000000E+00 0.00000000E+00
 8  5 0.00000000E+00 0.00000000E+00 0.00000000E+00 0.00000000E+00 0.00000000E+00
 8  6 0.00000000E+00 0.00000000E+00 0.00000000E+00 3.73824767E-05-1.63737823E-03
 8  7-1.05710630E-03 0.00000000E+00 3.18542098E-01-1.98348283E-01 0.00000000E+00
 8  8-6.47291836E-02 3.97353650E-02 0.00000000E+00-1.89296271E-02 1.28571818E-02
 8  9-2.86588074E-05-1.11854140E-02 1.12140728E-02 0.00000000E+00 0.00000000E+00
 8 10-6.61939439E-03-1.40434353E-04 8.83466528E-03-8.69423093E-03 0.00000000E+00
 8 11 0.00000000E+00 5.02785214E-03 3.73824767E-05-1.63737823E-03-1.05710630E-03
 8 12 0.00000000E+00-3.18542098E-01 1.98348283E-01 0.00000000E+00 6.47291836E-02
 8 13-3.97353650E-02 0.00000000E+00 1.89296271E-02-1.28571818E-02-2.86588074E-05
 8 14-1.11854140E-02 1.12140728E-02 0.00000000E+00 0.00000000E+00-6.61939439E-03
 8 15-1.40434353E-04 8.83466528E-03-8.69423093E-03 0.00000000E+00 0.00000000E+00
 8 16 5.02785214E-03-3.73824767E-05 1.63737823E-03 1.05710630E-03 0.00000000E+00
 8 17-3.18542098E-01-1.98348283E-01 0.00000000E+00 6.47291836E-02 3.97353650E-02
 8 18 0.00000000E+00 1.89296271E-02 1.28571818E-02 2.86588074E-05 1.11854140E-02
 8 19-1.12140728E-02 0.00000000E+00 0.00000000E+00-6.61939439E-03 1.40434353E-04
 8 20-8.83466528E-03 8.69423093E-03 0.00000000E+00 0.00000000E+00 5.02785214E-03
 8 21-3.73824767E-05 1.63737823E-03 1.05710630E-03 0.00000000E+00 3.18542098E-01
 8 22 1.98348283E-01 0.00000000E+00-6.47291836E-02-3.97353650E-02 0.00000000E+00
 8 23-1.89296271E-02-1.28571818E-02 2.86588074E-05 1.11854140E-02-1.12140728E-02
 8 24 0.00000000E+00 0.00000000E+00-6.61939439E-03 1.40434353E-04-8.83466528E-03
 8 25 8.69423093E-03 0.00000000E+00 0.00000000E+00 5.02785214E-03 3.01200351E-01
 8 26-2.11666753E-03-7.31818362E-02 0.00000000E+00-7.13930037E-03 1.38480936E-02
 8 27 0.00000000E+00-1.62395875E-03 1.83943392E-02 3.01200351E-01-2.11666753E-03
 8 28-7.31818362E-02 0.00000000E+00 7.13930037E-03-1.38480936E-02 0.00000000E+00
 8 29 1.62395875E-03-1.83943392E-02-3.01200351E-01 2.11666753E-03 7.31818362E-02
 8 30 0.00000000E+00 7.13930037E-03 1.38480936E-02 0.00000000E+00 1.62395875E-03
 8 31 1.83943392E-02-3.01200351E-01 2.11666753E-03 7.31818362E-02 0.00000000E+00
 8 32-7.13930037E-03-1.38480936E-02 0.00000000E+00-1.62395875E-03-1.83943392E-02
 8 33-2.95565719E-01 3.61384907E-03 7.33416659E-02 0.00000000E+00-1.58294991E-02
 8 34-5.92199446E-04 0.00000000E+00-1.68280626E-02-7.31669248E-03-2.95565719E-01
 8 35 3.61384907E-03 7.33416659E-02 0.00000000E+00 1.58294991E-02 5.92199446E-04
 8 36 0.00000000E+00 1.68280626E-02 7.31669248E-03 2.95565719E-01-3.61384907E-03
 8 37-7.33416659E-02 0.00000000E+00 1.58294991E-02-5.92199446E-04 0.00000000E+00
 8 38 1.68280626E-02-7.31669248E-03 2.95565719E-01-3.61384907E-03-7.33416659E-02
 8 39 0.00000000E+00-1.58294991E-02 5.92199446E-04 0.00000000E+00-1.68280626E-02
 8 40 7.31669248E-03
 9  1 4.37993493E-03 2.78852470E-03-9.47652604E-04 4.32570172E-04-2.12286129E-04
 9  2 9.64081502E-05-2.96906995E-05 0.00000000E+00 0.00000000E+00 0.00000000E+00
 9  3 0.00000000E+00 0.00000000E+00 0.00000000E+00 0.00000000E+00 0.00000000E+00
 9  4 0.00000000E+00 0.00000000E+00 0.00000000E+00 0.00000000E+00 0.00000000E+00
 9  5 0.00000000E+00 0.00000000E+00 0.00000000E+00 0.00000000E+00 0.00000000E+00
 9  6 0.00000000E+00 0.00000000E+00 0.00000000E+00 1.50063300E-01 8.92896576E-02
 9  7 5.53905327E-02 0.00000000E+00 2.09850014E-01 3.49670676E-01 0.00000000E+00
 9  8-1.23427107E-02-2.09389548E-02 0.00000000E+00-5.95324705E-03-7.55687505E-03
 9  9 5.75324395E-03-6.32546773E-04-5.12069717E-03 0.00000000E+00 0.00000000E+00
 9 10-4.42743114E-03 9.43088131E-04 3.45848637E-03-4.40157450E-03 0.00000000E+00
 9 11 0.00000000E+00-9.47448130E-03 1.50063300E-01 8.92896576E-02 5.53905327E-02
 9 12 0.00000000E+00-2.09850014E-01-3.49670676E-01 0.00000000E+00 1.23427107E-02
 9 13 2.09389548E-02 0.00000000E+00 5.95324705E-03 7.55687505E-03 5.75324395E-03
 9 14-6.32546773E-04-5.12069717E-03 0.00000000E+00 0.00000000E+00-4.42743114E-03
 9 15 9.43088131E-04 3.45848637E-03-4.40157450E-03 0.00000000E+00 0.00000000E+00
 9 16-9.47448130E-03 1.50063300E-01 8.92896576E-02 5.53905327E-02 0.00000000E+00
 9 17 2.09850014E-01-3.49670676E-01 0.00000000E+00-1.23427107E-02 2.09389548E-02
 9 18 0.00000000E+00-5.95324705E-03 7.55687505E-03 5.75324395E-03-6.32546773E-04
 9 19-5.12069717E-03 0.00000000E+00 0.00000000E+00 4.42743114E-03 9.43088131E-04
 9 20 3.45848637E-03-4.40157450E-03 0.00000000E+00 0.00000000E+00 9.47448130E-03
 9 21 1.50063300E-01 8.92896576E-02 5.53905327E-02 0.00000000E+00-2.09850014E-01
 9 22 3.49670676E-01 0.00000000E+00 1.23427107E-02-2.09389548E-02 0.00000000E+00