 $contrl scftyp=rohf dfttyp=b3lyp runtyp=energy nzvar=0 ispher=1
     coord=unique icharg=-1 mult=2 PP=READ MAXIT=100 $end
 $DFT NRAD=1000 NLEB=1730 NRAD0=1000 NLEB0=590 $end
 $SCF DIIS=.T. SOSCF=.F. SHIFT=.T. DAMP=.T. MAXDII=20 RSTRCT=.T. $end
 $system timlim=300 mwords=15000 memddi=2000 $end
 $GUESS  GUESS=MOREAD norb=166 $END 
 $data
W4- 4.0 ang UHF with avtz
Dnh 2

X 0.0    0.0           0.0            0.0
S   1
  1   0.02362232    1.0
S   1
  1   0.00738198    1.0
S   1
  1   0.00230687    1.0
P   1
  1   0.02362232    1.0

O 8.0       0.000000    1.730527    2.893437
S 9
1  54.775216    -0.0012444
2  25.616801     0.0107330
3  11.980245     0.0018889
4   6.992317    -0.1742537
5   2.620277     0.0017622
6   1.225429     0.3161846
7   0.577797     0.4512023
8   0.268022     0.3121534
9   0.125346     0.0511167
S 1
1   0.258551     1.0000000
S   1
1   0.0789600    1.0000000
P 9
1  22.217266     0.0104866
2  10.74755      0.0366435
3   5.315785     0.0803674
4   2.660761     0.1627010
5   1.331816     0.2377791
6   0.678626     0.2811422
7   0.333673     0.2643189
8   0.167017     0.1466014
9   0.083598     0.0458145
P 1
1   0.267865     1.0000000
P   1
1   0.0685600    1.0000000
D 1
1   1.232753     1.0000000
D   1
1   0.3320000    1.0000000

H 1.0       0.000000    1.387569    2.000001
S  8
  1      23.843185  0.00411490
  2      10.212443  0.01046440
  3       4.374164  0.02801110
  4       1.873529  0.07588620
  5       0.802465  0.18210620
  6       0.343709  0.34852140
  7       0.147217  0.37823130
  8       0.063055  0.11642410
S  1
  1       0.040680  1.00000000
S  1
  1       0.139013  1.00000000
P  1
  1       0.166430  1.00000000
P  1
  1       0.740212  1.000000

H 1.0       0.000000    2.681413    2.785434
S  8
  1      23.843185  0.00411490
  2      10.212443  0.01046440
  3       4.374164  0.02801110
  4       1.873529  0.07588620
  5       0.802465  0.18210620
  6       0.343709  0.34852140
  7       0.147217  0.37823130
  8       0.063055  0.11642410
S  1
  1       0.040680  1.00000000
S  1
  1       0.139013  1.00000000
P  1
  1       0.166430  1.00000000
P  1
  1       0.740212  1.000000

 $end
 $ecp
NONE
O-ccECP GEN 2 1
3
  6.000000 1  12.30997
  73.85984 3  14.76962
 -47.87600 2  13.71419
1
  85.86406 2  13.65512
O-ccECP
O-ccECP
O-ccECP
H-ccECP GEN 0 1
3
1.00000000000000    1 21.24359508259891 
21.24359508259891   3 21.24359508259891 
-10.85192405303825  2 21.77696655044365 
1
0.00000000000000    2 1.000000000000000 
H-ccECP
H-ccECP
H-ccECP
H-ccECP
H-ccECP
H-ccECP
H-ccECP
 $end


--- OPEN SHELL ORBITALS --- GENERATED AT Sun May  3 13:52:00 2020
W4- 4.0 ang UHF with avtz                                                       
E(U-B3LYP)=      -68.9330834398, E(NUC)=   69.3883142301,   17 ITERS
 $VEC   
 1  1-1.57789197E-02 1.28284008E-03-2.76537865E-04 0.00000000E+00 0.00000000E+00
 1  2 0.00000000E+00 4.41772455E-01-1.16845990E-01-4.44459171E-02 0.00000000E+00
 1  3-4.42689501E-02-7.43736818E-02 0.00000000E+00 2.85823474E-02 4.79499294E-02
 1  4 0.00000000E+00 3.87987466E-03 9.87151535E-03-4.45817998E-03 2.40548416E-03
 1  5 2.05269582E-03 0.00000000E+00 0.00000000E+00-5.76500373E-04 9.85757272E-03
 1  6-6.40881245E-03-3.44876027E-03 0.00000000E+00 0.00000000E+00 3.32166788E-03
 1  7 4.41772455E-01-1.16845990E-01-4.44459171E-02 0.00000000E+00 4.42689501E-02
 1  8 7.43736818E-02 0.00000000E+00-2.85823474E-02-4.79499294E-02 0.00000000E+00
 1  9-3.87987466E-03-9.87151535E-03-4.45817998E-03 2.40548416E-03 2.05269582E-03
 1 10 0.00000000E+00 0.00000000E+00-5.76500373E-04 9.85757272E-03-6.40881245E-03
 1 11-3.44876027E-03 0.00000000E+00 0.00000000E+00 3.32166788E-03 4.41772455E-01
 1 12-1.16845990E-01-4.44459171E-02 0.00000000E+00-4.42689501E-02 7.43736818E-02
 1 13 0.00000000E+00 2.85823474E-02-4.79499294E-02 0.00000000E+00 3.87987466E-03
 1 14-9.87151535E-03-4.45817998E-03 2.40548416E-03 2.05269582E-03 0.00000000E+00
 1 15 0.00000000E+00 5.76500373E-04 9.85757272E-03-6.40881245E-03-3.44876027E-03
 1 16 0.00000000E+00 0.00000000E+00-3.32166788E-03 4.41772455E-01-1.16845990E-01
 1 17-4.44459171E-02 0.00000000E+00 4.42689501E-02-7.43736818E-02 0.00000000E+00
 1 18-2.85823474E-02 4.79499294E-02 0.00000000E+00-3.87987466E-03 9.87151535E-03
 1 19-4.45817998E-03 2.40548416E-03 2.05269582E-03 0.00000000E+00 0.00000000E+00
 1 20 5.76500373E-04 9.85757272E-03-6.40881245E-03-3.44876027E-03 0.00000000E+00
 1 21 0.00000000E+00-3.32166788E-03 1.90206378E-01 6.25039216E-03-5.52224134E-02
 1 22 0.00000000E+00-5.43481127E-03 1.58371905E-02 0.00000000E+00-8.96797272E-03
 1 23 1.60499516E-02 1.90206378E-01 6.25039216E-03-5.52224134E-02 0.00000000E+00
 1 24 5.43481127E-03-1.58371905E-02 0.00000000E+00 8.96797272E-03-1.60499516E-02
 1 25 1.90206378E-01 6.25039216E-03-5.52224134E-02 0.00000000E+00-5.43481127E-03
 1 26-1.58371905E-02 0.00000000E+00-8.96797272E-03-1.60499516E-02 1.90206378E-01
 1 27 6.25039216E-03-5.52224134E-02 0.00000000E+00 5.43481127E-03 1.58371905E-02
 1 28 0.00000000E+00 8.96797272E-03 1.60499516E-02 1.87973260E-01-6.50779256E-03
 1 29-5.47526062E-02 0.00000000E+00 1.55414865E-02 9.32026845E-04 0.00000000E+00
 1 30 1.85749371E-02-5.24835489E-04 1.87973260E-01-6.50779256E-03-5.47526062E-02
 1 31 0.00000000E+00-1.55414865E-02-9.32026845E-04 0.00000000E+00-1.85749371E-02
 1 32 5.24835489E-04 1.87973260E-01-6.50779256E-03-5.47526062E-02 0.00000000E+00
 1 33 1.55414865E-02-9.32026845E-04 0.00000000E+00 1.85749371E-02 5.24835489E-04
 1 34 1.87973260E-01-6.50779256E-03-5.47526062E-02 0.00000000E+00-1.55414865E-02
 1 35 9.32026845E-04 0.00000000E+00-1.85749371E-02-5.24835489E-04
 2  1 0.00000000E+00 0.00000000E+00 0.00000000E+00 0.00000000E+00 0.00000000E+00
 2  2-1.53477231E-02 4.41785830E-01-1.16630131E-01-4.74093074E-02 0.00000000E+00
 2  3-4.43217388E-02-7.43756665E-02 0.00000000E+00 2.89833863E-02 4.80513355E-02
 2  4 0.00000000E+00 4.90931824E-03 1.06373699E-02-4.46228857E-03 2.40511712E-03
 2  5 2.05717146E-03 0.00000000E+00 0.00000000E+00-5.60889843E-04 9.95344977E-03
 2  6-6.33495419E-03-3.61849558E-03 0.00000000E+00 0.00000000E+00 3.28321309E-03
 2  7-4.41785830E-01 1.16630131E-01 4.74093074E-02 0.00000000E+00-4.43217388E-02
 2  8-7.43756665E-02 0.00000000E+00 2.89833863E-02 4.80513355E-02 0.00000000E+00
 2  9 4.90931824E-03 1.06373699E-02 4.46228857E-03-2.40511712E-03-2.05717146E-03
 2 10 0.00000000E+00 0.00000000E+00 5.60889843E-04-9.95344977E-03 6.33495419E-03
 2 11 3.61849558E-03 0.00000000E+00 0.00000000E+00-3.28321309E-03-4.41785830E-01
 2 12 1.16630131E-01 4.74093074E-02 0.00000000E+00 4.43217388E-02-7.43756665E-02
 2 13 0.00000000E+00-2.89833863E-02 4.80513355E-02 0.00000000E+00-4.90931824E-03
 2 14 1.06373699E-02 4.46228857E-03-2.40511712E-03-2.05717146E-03 0.00000000E+00
 2 15 0.00000000E+00-5.60889843E-04-9.95344977E-03 6.33495419E-03 3.61849558E-03
 2 16 0.00000000E+00 0.00000000E+00 3.28321309E-03 4.41785830E-01-1.16630131E-01
 2 17-4.74093074E-02 0.00000000E+00 4.43217388E-02-7.43756665E-02 0.00000000E+00
 2 18-2.89833863E-02 4.80513355E-02 0.00000000E+00-4.90931824E-03 1.06373699E-02
 2 19-4.46228857E-03 2.40511712E-03 2.05717146E-03 0.00000000E+00 0.00000000E+00
 2 20 5.60889843E-04 9.95344977E-03-6.33495419E-03-3.61849558E-03 0.00000000E+00
 2 21 0.00000000E+00-3.28321309E-03 1.90202586E-01 1.02114597E-02-5.58013763E-02
 2 22 0.00000000E+00-5.26929279E-03 1.45480086E-02 0.00000000E+00-9.02786632E-03
 2 23 1.61547003E-02-1.90202586E-01-1.02114597E-02 5.58013763E-02 0.00000000E+00
 2 24-5.26929279E-03 1.45480086E-02 0.00000000E+00-9.02786632E-03 1.61547003E-02
 2 25-1.90202586E-01-1.02114597E-02 5.58013763E-02 0.00000000E+00 5.26929279E-03
 2 26 1.45480086E-02 0.00000000E+00 9.02786632E-03 1.61547003E-02 1.90202586E-01
 2 27 1.02114597E-02-5.58013763E-02 0.00000000E+00 5.26929279E-03 1.45480086E-02
 2 28 0.00000000E+00 9.02786632E-03 1.61547003E-02 1.88034028E-01-4.26552324E-03
 2 29-5.30478908E-02 0.00000000E+00 1.64169238E-02 8.16717762E-04 0.00000000E+00
 2 30 1.85524960E-02-5.36702244E-04-1.88034028E-01 4.26552324E-03 5.30478908E-02
 2 31 0.00000000E+00 1.64169238E-02 8.16717762E-04 0.00000000E+00 1.85524960E-02
 2 32-5.36702244E-04-1.88034028E-01 4.26552324E-03 5.30478908E-02 0.00000000E+00
 2 33-1.64169238E-02 8.16717762E-04 0.00000000E+00-1.85524960E-02-5.36702244E-04
 2 34 1.88034028E-01-4.26552324E-03-5.30478908E-02 0.00000000E+00-1.64169238E-02
 2 35 8.16717762E-04 0.00000000E+00-1.85524960E-02-5.36702244E-04
 3  1 0.00000000E+00 0.00000000E+00 0.00000000E+00 0.00000000E+00 0.00000000E+00
 3  2 0.00000000E+00 4.42277897E-01-1.14614198E-01-4.13105349E-02 0.00000000E+00
 3  3-4.52164576E-02-7.46174082E-02 0.00000000E+00 2.83035684E-02 4.91418940E-02
 3  4 0.00000000E+00-2.77472635E-03 1.11290456E-02-4.58148936E-03 2.49332241E-03
 3  5 2.08816695E-03 0.00000000E+00 0.00000000E+00-5.01542345E-04 1.03816644E-02
 3  6-6.49633305E-03-3.88533139E-03 0.00000000E+00 0.00000000E+00 3.06053584E-03
 3  7 4.42277897E-01-1.14614198E-01-4.13105349E-02 0.00000000E+00 4.52164576E-02
 3  8 7.46174082E-02 0.00000000E+00-2.83035684E-02-4.91418940E-02 0.00000000E+00
 3  9 2.77472635E-03-1.11290456E-02-4.58148936E-03 2.49332241E-03 2.08816695E-03
 3 10 0.00000000E+00 0.00000000E+00-5.01542345E-04 1.03816644E-02-6.49633305E-03
 3 11-3.88533139E-03 0.00000000E+00 0.00000000E+00 3.06053584E-03-4.42277897E-01
 3 12 1.14614198E-01 4.13105349E-02 0.00000000E+00 4.52164576E-02-7.46174082E-02
 3 13 0.00000000E+00-2.83035684E-02 4.91418940E-02 0.00000000E+00 2.77472635E-03
 3 14 1.11290456E-02 4.58148936E-03-2.49332241E-03-2.08816695E-03 0.00000000E+00
 3 15 0.00000000E+00-5.01542345E-04-1.03816644E-02 6.49633305E-03 3.88533139E-03
 3 16 0.00000000E+00 0.00000000E+00 3.06053584E-03-4.42277897E-01 1.14614198E-01
 3 17 4.13105349E-02 0.00000000E+00-4.52164576E-02 7.46174082E-02 0.00000000E+00
 3 18 2.83035684E-02-4.91418940E-02 0.00000000E+00-2.77472635E-03-1.11290456E-02
 3 19 4.58148936E-03-2.49332241E-03-2.08816695E-03 0.00000000E+00 0.00000000E+00
 3 20-5.01542345E-04-1.03816644E-02 6.49633305E-03 3.88533139E-03 0.00000000E+00
 3 21 0.00000000E+00 3.06053584E-03 1.90420481E-01 6.87113259E-03-5.01555359E-02
 3 22 0.00000000E+00-9.19755403E-03 1.59466237E-02 0.00000000E+00-8.80067032E-03
 3 23 1.60904875E-02 1.90420481E-01 6.87113259E-03-5.01555359E-02 0.00000000E+00
 3 24 9.19755403E-03-1.59466237E-02 0.00000000E+00 8.80067032E-03-1.60904875E-02
 3 25-1.90420481E-01-6.87113259E-03 5.01555359E-02 0.00000000E+00 9.19755403E-03
 3 26 1.59466237E-02 0.00000000E+00 8.80067032E-03 1.60904875E-02-1.90420481E-01
 3 27-6.87113259E-03 5.01555359E-02 0.00000000E+00-9.19755403E-03-1.59466237E-02
 3 28 0.00000000E+00-8.80067032E-03-1.60904875E-02 1.89712549E-01-1.15350990E-02
 3 29-6.55927420E-02 0.00000000E+00 1.33460608E-02 1.54416320E-03 0.00000000E+00
 3 30 1.83427058E-02-6.76440260E-04 1.89712549E-01-1.15350990E-02-6.55927420E-02
 3 31 0.00000000E+00-1.33460608E-02-1.54416320E-03 0.00000000E+00-1.83427058E-02
 3 32 6.76440260E-04-1.89712549E-01 1.15350990E-02 6.55927420E-02 0.00000000E+00
 3 33-1.33460608E-02 1.54416320E-03 0.00000000E+00-1.83427058E-02-6.76440260E-04
 3 34-1.89712549E-01 1.15350990E-02 6.55927420E-02 0.00000000E+00 1.33460608E-02
 3 35-1.54416320E-03 0.00000000E+00 1.83427058E-02 6.76440260E-04
 4  1 0.00000000E+00 0.00000000E+00 0.00000000E+00 0.00000000E+00 8.04164134E-03
 4  2 0.00000000E+00 4.42157430E-01-1.13815625E-01-4.18620872E-02 0.00000000E+00
 4  3-4.53000010E-02-7.44725843E-02 0.00000000E+00 2.98238854E-02 4.76054433E-02
 4  4 0.00000000E+00 2.25107774E-03 9.53604867E-03-4.58715068E-03 2.49625685E-03
 4  5 2.09089383E-03 0.00000000E+00 0.00000000E+00-5.19472601E-04 1.03841412E-02
 4  6-6.85995664E-03-3.52418457E-03 0.00000000E+00 0.00000000E+00 2.96341554E-03
 4  7-4.42157430E-01 1.13815625E-01 4.18620872E-02 0.00000000E+00-4.53000010E-02
 4  8-7.44725843E-02 0.00000000E+00 2.98238854E-02 4.76054433E-02 0.00000000E+00
 4  9 2.25107774E-03 9.53604867E-03 4.58715068E-03-2.49625685E-03-2.09089383E-03
 4 10 0.00000000E+00 0.00000000E+00 5.19472601E-04-1.03841412E-02 6.85995664E-03
 4 11 3.52418457E-03 0.00000000E+00 0.00000000E+00-2.96341554E-03 4.42157430E-01
 4 12-1.13815625E-01-4.18620872E-02 0.00000000E+00-4.53000010E-02 7.44725843E-02
 4 13 0.00000000E+00 2.98238854E-02-4.76054433E-02 0.00000000E+00 2.25107774E-03
 4 14-9.53604867E-03-4.58715068E-03 2.49625685E-03 2.09089383E-03 0.00000000E+00
 4 15 0.00000000E+00 5.19472601E-04 1.03841412E-02-6.85995664E-03-3.52418457E-03
 4 16 0.00000000E+00 0.00000000E+00-2.96341554E-03-4.42157430E-01 1.13815625E-01
 4 17 4.18620872E-02 0.00000000E+00-4.53000010E-02 7.44725843E-02 0.00000000E+00
 4 18 2.98238854E-02-4.76054433E-02 0.00000000E+00 2.25107774E-03-9.53604867E-03
 4 19 4.58715068E-03-2.49625685E-03-2.09089383E-03 0.00000000E+00 0.00000000E+00
 4 20-5.19472601E-04-1.03841412E-02 6.85995664E-03 3.52418457E-03 0.00000000E+00
 4 21 0.00000000E+00 2.96341554E-03 1.89797686E-01 6.22060065E-03-5.68116738E-02
 4 22 0.00000000E+00-7.51008519E-03 1.38597596E-02 0.00000000E+00-8.81622983E-03
 4 23 1.59917862E-02-1.89797686E-01-6.22060065E-03 5.68116738E-02 0.00000000E+00
 4 24-7.51008519E-03 1.38597596E-02 0.00000000E+00-8.81622983E-03 1.59917862E-02
 4 25 1.89797686E-01 6.22060065E-03-5.68116738E-02 0.00000000E+00-7.51008519E-03
 4 26-1.38597596E-02 0.00000000E+00-8.81622983E-03-1.59917862E-02-1.89797686E-01
 4 27-6.22060065E-03 5.68116738E-02 0.00000000E+00-7.51008519E-03-1.38597596E-02
 4 28 0.00000000E+00-8.81622983E-03-1.59917862E-02 1.89921102E-01-6.16706984E-03
 4 29-5.89973125E-02 0.00000000E+00 1.51609458E-02 1.44762259E-03 0.00000000E+00
 4 30 1.84650990E-02-6.19272203E-04-1.89921102E-01 6.16706984E-03 5.89973125E-02
 4 31 0.00000000E+00 1.51609458E-02 1.44762259E-03 0.00000000E+00 1.84650990E-02
 4 32-6.19272203E-04 1.89921102E-01-6.16706984E-03-5.89973125E-02 0.00000000E+00
 4 33 1.51609458E-02-1.44762259E-03 0.00000000E+00 1.84650990E-02 6.19272203E-04
 4 34-1.89921102E-01 6.16706984E-03 5.89973125E-02 0.00000000E+00 1.51609458E-02
 4 35-1.44762259E-03 0.00000000E+00 1.84650990E-02 6.19272203E-04
 5  1-2.59045981E-02 6.23516514E-03-1.50921866E-03 0.00000000E+00 0.00000000E+00
 5  2 0.00000000E+00-4.42334216E-03-2.26007453E-04-7.25436564E-03 0.00000000E+00
 5  3 3.26873654E-01-1.95453084E-01 0.00000000E+00-9.13658215E-02 5.54130933E-02
 5  4 0.00000000E+00-3.00543549E-02 1.84946138E-02-4.46595516E-05-9.84027640E-03
 5  5 9.88493595E-03 0.00000000E+00 0.00000000E+00-6.09033849E-03 4.95780757E-05
 5  6 1.36740737E-02-1.37236518E-02 0.00000000E+00 0.00000000E+00 8.69211176E-03
 5  7-4.42334216E-03-2.26007453E-04-7.25436564E-03 0.00000000E+00-3.26873654E-01
 5  8 1.95453084E-01 0.00000000E+00 9.13658215E-02-5.54130933E-02 0.00000000E+00
 5  9 3.00543549E-02-1.84946138E-02-4.46595516E-05-9.84027640E-03 9.88493595E-03
 5 10 0.00000000E+00 0.00000000E+00-6.09033849E-03 4.95780757E-05 1.36740737E-02
 5 11-1.37236518E-02 0.00000000E+00 0.00000000E+00 8.69211176E-03-4.42334216E-03
 5 12-2.26007453E-04-7.25436564E-03 0.00000000E+00 3.26873654E-01 1.95453084E-01
 5 13 0.00000000E+00-9.13658215E-02-5.54130933E-02 0.00000000E+00-3.00543549E-02
 5 14-1.84946138E-02-4.46595516E-05-9.84027640E-03 9.88493595E-03 0.00000000E+00
 5 15 0.00000000E+00 6.09033849E-03 4.95780757E-05 1.36740737E-02-1.37236518E-02
 5 16 0.00000000E+00 0.00000000E+00-8.69211176E-03-4.42334216E-03-2.26007453E-04
 5 17-7.25436564E-03 0.00000000E+00-3.26873654E-01-1.95453084E-01 0.00000000E+00
 5 18 9.13658215E-02 5.54130933E-02 0.00000000E+00 3.00543549E-02 1.84946138E-02
 5 19-4.46595516E-05-9.84027640E-03 9.88493595E-03 0.00000000E+00 0.00000000E+00
 5 20 6.09033849E-03 4.95780757E-05 1.36740737E-02-1.37236518E-02 0.00000000E+00
 5 21 0.00000000E+00-8.69211176E-03 3.07624209E-01 1.78106598E-02-4.70708516E-02
 5 22 0.00000000E+00-6.32881422E-03 2.40152554E-02 0.00000000E+00 7.30165548E-04
 5 23 1.51055488E-02 3.07624209E-01 1.78106598E-02-4.70708516E-02 0.00000000E+00
 5 24 6.32881422E-03-2.40152554E-02 0.00000000E+00-7.30165548E-04-1.51055488E-02
 5 25 3.07624209E-01 1.78106598E-02-4.70708516E-02 0.00000000E+00-6.32881422E-03
 5 26-2.40152554E-02 0.00000000E+00 7.30165548E-04-1.51055488E-02 3.07624209E-01
 5 27 1.78106598E-02-4.70708516E-02 0.00000000E+00 6.32881422E-03 2.40152554E-02
 5 28 0.00000000E+00-7.30165548E-04 1.51055488E-02-3.07239668E-01-8.24776759E-03
 5 29 5.22889470E-02 0.00000000E+00-2.39730725E-02-3.41063725E-03 0.00000000E+00
 5 30-1.40185249E-02-6.88977742E-03-3.07239668E-01-8.24776759E-03 5.22889470E-02
 5 31 0.00000000E+00 2.39730725E-02 3.41063725E-03 0.00000000E+00 1.40185249E-02
 5 32 6.88977742E-03-3.07239668E-01-8.24776759E-03 5.22889470E-02 0.00000000E+00
 5 33-2.39730725E-02 3.41063725E-03 0.00000000E+00-1.40185249E-02 6.88977742E-03
 5 34-3.07239668E-01-8.24776759E-03 5.22889470E-02 0.00000000E+00 2.39730725E-02
 5 35-3.41063725E-03 0.00000000E+00 1.40185249E-02-6.88977742E-03
 6  1 0.00000000E+00 0.00000000E+00 0.00000000E+00 0.00000000E+00 0.00000000E+00
 6  2-7.05489768E-03-4.00593799E-03 7.48542919E-04-6.82256035E-03 0.00000000E+00
 6  3 3.27349350E-01-1.95318009E-01 0.00000000E+00-9.13087977E-02 5.55534605E-02
 6  4 0.00000000E+00-2.96961464E-02 1.90166087E-02-3.37994231E-05-9.85067945E-03
 6  5 9.88447887E-03 0.00000000E+00 0.00000000E+00-6.08097113E-03 1.62629354E-04
 6  6 1.38423031E-02-1.40049325E-02 0.00000000E+00 0.00000000E+00 8.71207338E-03
 6  7 4.00593799E-03-7.48542919E-04 6.82256035E-03 0.00000000E+00 3.27349350E-01
 6  8-1.95318009E-01 0.00000000E+00-9.13087977E-02 5.55534605E-02 0.00000000E+00
 6  9-2.96961464E-02 1.90166087E-02 3.37994231E-05 9.85067945E-03-9.88447887E-03
 6 10 0.00000000E+00 0.00000000E+00 6.08097113E-03-1.62629354E-04-1.38423031E-02
 6 11 1.40049325E-02 0.00000000E+00 0.00000000E+00-8.71207338E-03 4.00593799E-03
 6 12-7.48542919E-04 6.82256035E-03 0.00000000E+00-3.27349350E-01-1.95318009E-01
 6 13 0.00000000E+00 9.13087977E-02 5.55534605E-02 0.00000000E+00 2.96961464E-02
 6 14 1.90166087E-02 3.37994231E-05 9.85067945E-03-9.88447887E-03 0.00000000E+00
 6 15 0.00000000E+00-6.08097113E-03-1.62629354E-04-1.38423031E-02 1.40049325E-02
 6 16 0.00000000E+00 0.00000000E+00 8.71207338E-03-4.00593799E-03 7.48542919E-04
 6 17-6.82256035E-03 0.00000000E+00-3.27349350E-01-1.95318009E-01 0.00000000E+00
 6 18 9.13087977E-02 5.55534605E-02 0.00000000E+00 2.96961464E-02 1.90166087E-02
 6 19-3.37994231E-05-9.85067945E-03 9.88447887E-03 0.00000000E+00 0.00000000E+00
 6 20 6.08097113E-03 1.62629354E-04 1.38423031E-02-1.40049325E-02 0.00000000E+00
 6 21 0.00000000E+00-8.71207338E-03 3.07507357E-01 1.55336025E-02-4.72233702E-02
 6 22 0.00000000E+00-5.89415336E-03 2.20243725E-02 0.00000000E+00 6.34285723E-04
 6 23 1.53647461E-02-3.07507357E-01-1.55336025E-02 4.72233702E-02 0.00000000E+00
 6 24-5.89415336E-03 2.20243725E-02 0.00000000E+00 6.34285723E-04 1.53647461E-02
 6 25-3.07507357E-01-1.55336025E-02 4.72233702E-02 0.00000000E+00 5.89415336E-03
 6 26 2.20243725E-02 0.00000000E+00-6.34285723E-04 1.53647461E-02 3.07507357E-01
 6 27 1.55336025E-02-4.72233702E-02 0.00000000E+00 5.89415336E-03 2.20243725E-02
 6 28 0.00000000E+00-6.34285723E-04 1.53647461E-02-3.07671159E-01-6.98350234E-03
 6 29 5.28010414E-02 0.00000000E+00-2.37687781E-02-3.65967257E-03 0.00000000E+00
 6 30-1.40297633E-02-6.90432954E-03 3.07671159E-01 6.98350234E-03-5.28010414E-02
 6 31 0.00000000E+00-2.37687781E-02-3.65967257E-03 0.00000000E+00-1.40297633E-02
 6 32-6.90432954E-03 3.07671159E-01 6.98350234E-03-5.28010414E-02 0.00000000E+00
 6 33 2.37687781E-02-3.65967257E-03 0.00000000E+00 1.40297633E-02-6.90432954E-03
 6 34-3.07671159E-01-6.98350234E-03 5.28010414E-02 0.00000000E+00 2.37687781E-02
 6 35-3.65967257E-03 0.00000000E+00 1.40297633E-02-6.90432954E-03
 7  1 0.00000000E+00 0.00000000E+00 0.00000000E+00 0.00000000E+00 7.90606932E-04
 7  2 0.00000000E+00 1.08868323E-04-1.40716406E-03-5.12219849E-03 0.00000000E+00
 7  3 3.27968472E-01-2.04855835E-01 0.00000000E+00-9.24482821E-02 5.64952114E-02
 7  4 0.00000000E+00-2.46345910E-02 1.64994958E-02-3.64771461E-05-1.01941466E-02
 7  5 1.02306238E-02 0.00000000E+00 0.00000000E+00-6.03644634E-03-3.96277566E-07
 7  6 1.39516563E-02-1.39512601E-02 0.00000000E+00 0.00000000E+00 8.51392709E-03
 7  7-1.08868323E-04 1.40716406E-03 5.12219849E-03 0.00000000E+00 3.27968472E-01
 7  8-2.04855835E-01 0.00000000E+00-9.24482821E-02 5.64952114E-02 0.00000000E+00
 7  9-2.46345910E-02 1.64994958E-02 3.64771461E-05 1.01941466E-02-1.02306238E-02
 7 10 0.00000000E+00 0.00000000E+00 6.03644634E-03 3.96277566E-07-1.39516563E-02
 7 11 1.39512601E-02 0.00000000E+00 0.00000000E+00-8.51392709E-03 1.08868323E-04
 7 12-1.40716406E-03-5.12219849E-03 0.00000000E+00 3.27968472E-01 2.04855835E-01
 7 13 0.00000000E+00-9.24482821E-02-5.64952114E-02 0.00000000E+00-2.46345910E-02
 7 14-1.64994958E-02-3.64771461E-05-1.01941466E-02 1.02306238E-02 0.00000000E+00
 7 15 0.00000000E+00 6.03644634E-03-3.96277566E-07 1.39516563E-02-1.39512601E-02
 7 16 0.00000000E+00 0.00000000E+00-8.51392709E-03-1.08868323E-04 1.40716406E-03
 7 17 5.12219849E-03 0.00000000E+00 3.27968472E-01 2.04855835E-01 0.00000000E+00
 7 18-9.24482821E-02-5.64952114E-02 0.00000000E+00-2.46345910E-02-1.64994958E-02
 7 19 3.64771461E-05 1.01941466E-02-1.02306238E-02 0.00000000E+00 0.00000000E+00
 7 20-6.03644634E-03 3.96277566E-07-1.39516563E-02 1.39512601E-02 0.00000000E+00
 7 21 0.00000000E+00 8.51392709E-03 3.13835143E-01 6.50075294E-03-5.03832152E-02
 7 22 0.00000000E+00-9.28495887E-03 2.41419995E-02 0.00000000E+00-3.24274639E-04
 7 23 1.55637368E-02-3.13835143E-01-6.50075294E-03 5.03832152E-02 0.00000000E+00
 7 24-9.28495887E-03 2.41419995E-02 0.00000000E+00-3.24274639E-04 1.55637368E-02
 7 25 3.13835143E-01 6.50075294E-03-5.03832152E-02 0.00000000E+00-9.28495887E-03
 7 26-2.41419995E-02 0.00000000E+00-3.24274639E-04-1.55637368E-02-3.13835143E-01
 7 27-6.50075294E-03 5.03832152E-02 0.00000000E+00-9.28495887E-03-2.41419995E-02
 7 28 0.00000000E+00-3.24274639E-04-1.55637368E-02-3.08782589E-01-2.35418035E-03
 7 29 5.18393340E-02 0.00000000E+00-2.52834461E-02-2.45009292E-03 0.00000000E+00
 7 30-1.37294495E-02-7.35395345E-03 3.08782589E-01 2.35418035E-03-5.18393340E-02
 7 31 0.00000000E+00-2.52834461E-02-2.45009292E-03 0.00000000E+00-1.37294495E-02
 7 32-7.35395345E-03-3.08782589E-01-2.35418035E-03 5.18393340E-02 0.00000000E+00
 7 33-2.52834461E-02 2.45009292E-03 0.00000000E+00-1.37294495E-02 7.35395345E-03
 7 34 3.08782589E-01 2.35418035E-03-5.18393340E-02 0.00000000E+00-2.52834461E-02
 7 35 2.45009292E-03 0.00000000E+00-1.37294495E-02 7.35395345E-03
 8  1 0.00000000E+00 0.00000000E+00 0.00000000E+00 0.00000000E+00 0.00000000E+00
 8  2 0.00000000E+00 5.34536025E-04-1.91822224E-03-1.20262557E-03 0.00000000E+00
 8  3 3.28387686E-01-2.04850292E-01 0.00000000E+00-9.40118060E-02 5.77295539E-02
 8  4 0.00000000E+00-2.87532227E-02 1.62951334E-02-1.31637564E-05-1.02031210E-02
 8  5 1.02162847E-02 0.00000000E+00 0.00000000E+00-6.01106789E-03-1.16691238E-04
 8  6 1.43390619E-02-1.42223706E-02 0.00000000E+00 0.00000000E+00 8.49039845E-03
 8  7 5.34536025E-04-1.91822224E-03-1.20262557E-03 0.00000000E+00-3.28387686E-01
 8  8 2.04850292E-01 0.00000000E+00 9.40118060E-02-5.77295539E-02 0.00000000E+00
 8  9 2.87532227E-02-1.62951334E-02-1.31637564E-05-1.02031210E-02 1.02162847E-02
 8 10 0.00000000E+00 0.00000000E+00-6.01106789E-03-1.16691238E-04 1.43390619E-02
 8 11-1.42223706E-02 0.00000000E+00 0.00000000E+00 8.49039845E-03-5.34536025E-04
 8 12 1.91822224E-03 1.20262557E-03 0.00000000E+00-3.28387686E-01-2.04850292E-01
 8 13 0.00000000E+00 9.40118060E-02 5.77295539E-02 0.00000000E+00 2.87532227E-02
 8 14 1.62951334E-02 1.31637564E-05 1.02031210E-02-1.02162847E-02 0.00000000E+00
 8 15 0.00000000E+00-6.01106789E-03 1.16691238E-04-1.43390619E-02 1.42223706E-02
 8 16 0.00000000E+00 0.00000000E+00 8.49039845E-03-5.34536025E-04 1.91822224E-03
 8 17 1.20262557E-03 0.00000000E+00 3.28387686E-01 2.04850292E-01 0.00000000E+00
 8 18-9.40118060E-02-5.77295539E-02 0.00000000E+00-2.87532227E-02-1.62951334E-02
 8 19 1.31637564E-05 1.02031210E-02-1.02162847E-02 0.00000000E+00 0.00000000E+00
 8 20-6.01106789E-03 1.16691238E-04-1.43390619E-02 1.42223706E-02 0.00000000E+00
 8 21 0.00000000E+00 8.49039845E-03 3.14180269E-01 4.27949234E-03-4.56634408E-02
 8 22 0.00000000E+00-1.07517051E-02 2.57730177E-02 0.00000000E+00-3.08436282E-04
 8 23 1.56851232E-02 3.14180269E-01 4.27949234E-03-4.56634408E-02 0.00000000E+00
 8 24 1.07517051E-02-2.57730177E-02 0.00000000E+00 3.08436282E-04-1.56851232E-02
 8 25-3.14180269E-01-4.27949234E-03 4.56634408E-02 0.00000000E+00 1.07517051E-02
 8 26 2.57730177E-02 0.00000000E+00 3.08436282E-04 1.56851232E-02-3.14180269E-01
 8 27-4.27949234E-03 4.56634408E-02 0.00000000E+00-1.07517051E-02-2.57730177E-02
 8 28 0.00000000E+00-3.08436282E-04-1.56851232E-02-3.09270519E-01-4.09281863E-03
 8 29 4.49579884E-02 0.00000000E+00-2.70048958E-02-2.60040244E-03 0.00000000E+00
 8 30-1.38603347E-02-7.38808503E-03-3.09270519E-01-4.09281863E-03 4.49579884E-02
 8 31 0.00000000E+00 2.70048958E-02 2.60040244E-03 0.00000000E+00 1.38603347E-02
 8 32 7.38808503E-03 3.09270519E-01 4.09281863E-03-4.49579884E-02 0.00000000E+00
 8 33 2.70048958E-02-2.60040244E-03 0.00000000E+00 1.38603347E-02-7.38808503E-03
 8 34 3.09270519E-01 4.09281863E-03-4.49579884E-02 0.00000000E+00-2.70048958E-02
 8 35 2.60040244E-03 0.00000000E+00-1.38603347E-02 7.38808503E-03
 9  1 2.40129717E-02 1.86018047E-04 3.48210009E-04 0.00000000E+00 0.00000000E+00
 9  2 0.00000000E+00 1.66858954E-01 7.93485288E-02 7.40721630E-02 0.00000000E+00
 9  3 2.11357513E-01 3.50302572E-01 0.00000000E+00-1.96073934E-02-3.46910768E-02
 9  4 0.00000000E+00-1.58706852E-03-4.08373360E-03 4.92582553E-03 5.96557852E-05
 9  5-4.98548132E-03 0.00000000E+00 0.00000000E+00-5.12856174E-03-1.01261677E-03
 9  6 4.23361410E-03-3.22099733E-03 0.00000000E+00 0.00000000E+00-9.00338774E-03
 9  7 1.66858954E-01 7.93485288E-02 7.40721630E-02 0.00000000E+00-2.11357513E-01
 9  8-3.50302572E-01 0.00000000E+00 1.96073934E-02 3.46910768E-02 0.00000000E+00
 9  9 1.58706852E-03 4.08373360E-03 4.92582553E-03 5.96557852E-05-4.98548132E-03
 9 10 0.00000000E+00 0.00000000E+00-5.12856174E-03-1.01261677E-03 4.23361410E-03
 9 11-3.22099733E-03 0.00000000E+00 0.00000000E+00-9.00338774E-03 1.66858954E-01
 9 12 7.93485288E-02 7.40721630E-02 0.00000000E+00 2.11357513E-01-3.50302572E-01
 9 13 0.00000000E+00-1.96073934E-02 3.46910768E-02 0.00000000E+00-1.58706852E-03
 9 14 4.08373360E-03 4.92582553E-03 5.96557852E-05-4.98548132E-03 0.00000000E+00
 9 15 0.00000000E+00 5.12856174E-03-1.01261677E-03 4.23361410E-03-3.22099733E-03
 9 16 0.00000000E+00 0.00000000E+00 9.00338774E-03 1.66858954E-01 7.93485288E-02
 9 17 7.40721630E-02 0.00000000E+00-2.11357513E-01 3.50302572E-01 0.00000000E+00
 9 18 1.96073934E-02-3.46910768E-02 0.00000000E+00 1.58706852E-03-4.08373360E-03
 9 19 4.92582553E-03 5.96557852E-05-4.98548132E-03 0.00000000E+00 0.00000000E+00
 9 20 5.12856174E-03-1.01261677E-03 4.23361410E-03-3.22099733E-03 0.00000000E+00
 9 21 0.00000000E+00 9.00338774E-03-1.77578290E-01-1.35965352E-02 3.40122229E-02
 9 22 0.00000000E+00 9.32406188E-03 2.98415070E-03 0.00000000E+00 1.03574214E-02
 9 23-2.11236097E-03-1.77578290E-01-1.35965352E-02 3.40122229E-02 0.00000000E+00
 9 24-9.32406188E-03-2.98415070E-03 0.00000000E+00-1.03574214E-02 2.11236097E-03
 9 25-1.77578290E-01-1.35965352E-02 3.40122229E-02 0.00000000E+00 9.32406188E-03
 9 26-2.98415070E-03 0.00000000E+00 1.03574214E-02 2.11236097E-03-1.77578290E-01
 9 27-1.35965352E-02 3.40122229E-02 0.00000000E+00-9.32406188E-03 2.98415070E-03
 9 28 0.00000000E+00-1.03574214E-02-2.11236097E-03-1.71526265E-01-4.21342981E-04
 9 29 3.45632897E-02 0.00000000E+00-1.69282901E-03 1.01240238E-02 0.00000000E+00
 9 30-6.75629577E-03 8.00194939E-03-1.71526265E-01-4.21342981E-04 3.45632897E-02
 9 31 0.00000000E+00 1.69282901E-03-1.01240238E-02 0.00000000E+00 6.75629577E-03
 9 32-8.00194939E-03-1.71526265E-01-4.21342981E-04 3.45632897E-02 0.00000000E+00
 9 33-1.69282901E-03-1.01240238E-02 0.00000000E+00-6.75629577E-03-8.00194939E-03
 9 34-1.71526265E-01-4.21342981E-04 3.45632897E-02 0.00000000E+00 1.69282901E-03
 9 35 1.01240238E-02 0.00000000E+00 6.75629577E-03 8.00194939E-03
10  1 0.00000000E+00 0.00000000E+00 0.00000000E+00 0.00000000E+00 0.00000000E+00
10  2 4.24521417E-02 1.66521034E-01 8.06105954E-02 9.09553030E-02 0.00000000E+00
10  3 2.10719955E-01 3.52146676E-01 0.00000000E+00-2.03625133E-02-3.52367594E-02
10  4 0.00000000E+00-1.27515013E-03-9.40774803E-03 4.96269866E-03 9.37586237E-05
10  5-5.05645729E-03 0.00000000E+00 0.00000000E+00-5.10634424E-03-1.22889743E-03
10  6 4.34748074E-03-3.11858331E-03 0.00000000E+00 0.00000000E+00-9.07911351E-03
10  7-1.66521034E-01-8.06105954E-02-9.09553030E-02 0.00000000E+00 2.10719955E-01
10  8 3.52146676E-01 0.00000000E+00-2.03625133E-02-3.52367594E-02 0.00000000E+00
10  9-1.27515013E-03-9.40774803E-03-4.96269866E-03-9.37586237E-05 5.05645729E-03
10 10 0.00000000E+00 0.00000000E+00 5.10634424E-03 1.22889743E-03-4.34748074E-03
10 11 3.11858331E-03 0.00000000E+00 0.00000000E+00 9.07911351E-03-1.66521034E-01
10 12-8.06105954E-02-9.09553030E-02 0.00000000E+00-2.10719955E-01 3.52146676E-01
10 13 0.00000000E+00 2.03625133E-02-3.52367594E-02 0.00000000E+00 1.27515013E-03
10 14-9.40774803E-03-4.96269866E-03-9.37586237E-05 5.05645729E-03 0.00000000E+00
10 15 0.00000000E+00-5.10634424E-03 1.22889743E-03-4.34748074E-03 3.11858331E-03
10 16 0.00000000E+00 0.00000000E+00-9.07911351E-03 1.66521034E-01 8.06105954E-02
10 17 9.09553030E-02 0.00000000E+00-2.10719955E-01 3.52146676E-01 0.00000000E+00
10 18 2.03625133E-02-3.52367594E-02 0.00000000E+00 1.27515013E-03-9.40774803E-03
10 19 4.96269866E-03 9.37586237E-05-5.05645729E-03 0.00000000E+00 0.00000000E+00
10 20 5.10634424E-03-1.22889743E-03 4.34748074E-03-3.11858331E-03 0.00000000E+00
10 21 0.00000000E+00 9.07911351E-03-1.78694607E-01-4.10224709E-02 3.21378354E-02
10 22 0.00000000E+00 9.60967840E-03 1.73318529E-03 0.00000000E+00 1.04069205E-02