 $contrl scftyp=rohf dfttyp=b3lyp runtyp=energy nzvar=0 ispher=1
     coord=unique icharg=-1 mult=2 PP=READ MAXIT=100 $end
 $DFT NRAD=1000 NLEB=1730 NRAD0=1000 NLEB0=590 $end
 $SCF DIIS=.T. SOSCF=.F. SHIFT=.T. DAMP=.T. MAXDII=20 RSTRCT=.T. $end
 $system timlim=300 mwords=15000 memddi=2000 $end
 $GUESS  GUESS=MOREAD norb=166 $END 
 $data
W4- 4.0 ang UHF with avtz
Dnh 2

X 0.0    0.0           0.0            0.0
S   1
  1   0.02362232    1.0
S   1
  1   0.00738198    1.0
S   1
  1   0.00230687    1.0
P   1
  1   0.02362232    1.0

O 8.0       0.000000    1.730527    2.893437
S 9
1  54.775216    -0.0012444
2  25.616801     0.0107330
3  11.980245     0.0018889
4   6.992317    -0.1742537
5   2.620277     0.0017622
6   1.225429     0.3161846
7   0.577797     0.4512023
8   0.268022     0.3121534
9   0.125346     0.0511167
S 1
1   0.258551     1.0000000
S   1
1   0.0789600    1.0000000
P 9
1  22.217266     0.0104866
2  10.74755      0.0366435
3   5.315785     0.0803674
4   2.660761     0.1627010
5   1.331816     0.2377791
6   0.678626     0.2811422
7   0.333673     0.2643189
8   0.167017     0.1466014
9   0.083598     0.0458145
P 1
1   0.267865     1.0000000
P   1
1   0.0685600    1.0000000
D 1
1   1.232753     1.0000000
D   1
1   0.3320000    1.0000000

H 1.0       0.000000    1.387569    2.000001
S  8
  1      23.843185  0.00411490
  2      10.212443  0.01046440
  3       4.374164  0.02801110
  4       1.873529  0.07588620
  5       0.802465  0.18210620
  6       0.343709  0.34852140
  7       0.147217  0.37823130
  8       0.063055  0.11642410
S  1
  1       0.040680  1.00000000
S  1
  1       0.139013  1.00000000
P  1
  1       0.166430  1.00000000
P  1
  1       0.740212  1.000000

H 1.0       0.000000    2.681413    2.785434
S  8
  1      23.843185  0.00411490
  2      10.212443  0.01046440
  3       4.374164  0.02801110
  4       1.873529  0.07588620
  5       0.802465  0.18210620
  6       0.343709  0.34852140
  7       0.147217  0.37823130
  8       0.063055  0.11642410
S  1
  1       0.040680  1.00000000
S  1
  1       0.139013  1.00000000
P  1
  1       0.166430  1.00000000
P  1
  1       0.740212  1.000000

 $end
 $ecp
NONE
O-ccECP GEN 2 1
3
  6.000000 1  12.30997
  73.85984 3  14.76962
 -47.87600 2  13.71419
1
  85.86406 2  13.65512
O-ccECP
O-ccECP
O-ccECP
H-ccECP GEN 0 1
3
1.00000000000000    1 21.24359508259891 
21.24359508259891   3 21.24359508259891 
-10.85192405303825  2 21.77696655044365 
1
0.00000000000000    2 1.000000000000000 
H-ccECP
H-ccECP
H-ccECP
H-ccECP
H-ccECP
H-ccECP
H-ccECP
 $end

